16 32
1 2 5
1 5 4
2 3 2
2 6 1
3 4 4
3 7 4
4 8 2
5 6 1
5 9 3
6 7 2
6 10 3
7 8 1
7 11 4
8 12 5
9 10 4
9 13 3
10 11 4
10 14 4
11 12 5
11 15 2
12 16 2
13 14 1
14 15 2
15 16 3
1 13 3
2 14 1
3 15 2
4 16 1
1 4 4
5 8 4
9 12 5
13 16 3
